100
128
23
5
7
4
21
33
5
43
11
30
8
2
2
32
2
6
1
20
10
49
35
4
57
11
19
2
10
9
27
37
16
28
5
20
11
43
9
58
34
5
6
34
49
6
55
34
51
45
2
48
43
57
53
18
22
4
55
12
59
50
50
57
45
12
64
49
18
15
19
8
37
43
49
36
37
4
31
4
19
32
46
36
38
62
29
64
2
43
46
41
63
6
57
50
46
32
41
8
64
64